90 176 25 182 123 78 38 32 151 180 162 115 106 4 84 104 191 85 26 9 37 89 27 80 197 117 174 33 75 124 29 72 145 91 131 196 165 53 62 127 130 22 114 60 134 67 48 109 189 20 6 137 120 30 181 42 70 173 51 88 171 19 11 66 172 44 54 73 166 36 23 12 161 95 82 150 31 178 69 199 56 111 132 39 103 158 175 169 101 192 142 79 140 116 129 139 126 92 57 83 188 87 99 17 65 68 159 16 0 190 122 93 135 164 187 119 15 186 155 7 168 1 143 136 160 102 121 141 108 45 157 128 144 76 138 125 153 8 14 61 96 156 28 94 10 148 50 113 40 34 71 86 179 41 21 74 152 195 193 46 24 77 149 110 98 184 52 112 167 118 43 146 198 97 107 185 55 183 47 3 18 59 49 194 64 2 13 154 105 63 5 100 133 35 170 58 147 177 163 81 

